%NProcShared=2
#n B3LYP/6-31G(d) Opt

 Title

0 1
C  
C   1 B1
C   1 B2 2 A2
H   1 B3 2 A3 3 D3
C   2 B4 1 A4 3 D4
H   2 B5 1 A5 3 D5
C   3 B6 1 A6 2 D6
H   3 B7 1 A7 2 D7
C   7 B8 3 A8 1 D8
H   7 B9 3 A9 1 D9
H   9 B10 7 A10 3 D10
N   5 B11 2 A11 1 D11
N   12 B12 5 A12 2 D12
H   12 B13 5 A13 2 D13
C   13 B14 12 A14 5 D14
H   13 B15 12 A15 5 D15
C   15 B16 13 A16 12 D16
C   17 B17 15 A17 13 D17
H   17 B18 15 A18 13 D18
C   15 B19 13 A19 12 D19
C   18 B20 17 A20 15 D20
H   18 B21 17 A21 15 D21
C   21 B22 18 A22 17 D22
H   20 B23 15 A23 13 D23
H   23 B24 21 A24 18 D24
H   21 B25 18 A25 17 D25
Variables:
B1        1.39665
B2        1.39462
A2      120.00278
B3        1.08681
A3      120.05454
D3      179.89478
B4        1.40004
A4      120.22679
D4      359.83183
B5        1.08595
A5      119.36323
D5      179.92081
B6        1.39430
A6      119.99982
D6        0.19441
B7        1.08687
A7      120.06994
D7      180.00172
B8        1.39538
A8      119.97060
D8        0.08028
B9        1.08646
A9      120.20946
D9      179.85013
B10        1.08687
A10      120.05435
D10      179.54200
B11        1.41705
A11      121.47674
D11      180.28851
B12        1.38461
A12      118.01360
D12       69.58315
B13        1.02544
A13      107.45526
D13      303.84160
B14        1.41292
A14      118.58234
D14      180.49408
B15        1.02024
A15      114.51187
D15      315.96416
B16        1.39912
A16      120.26781
D16      115.92897
B17        1.39646
A17      120.52238
D17      184.33509
B18        1.08628
A18      120.34965
D18        2.79436
B19        1.39979
A19      120.56692
D19      301.31543
B20        1.39425
A20      120.03292
D20      359.62525
B21        1.08645
A21      119.94305
D21      179.11507
B22        1.39348
A22      119.91590
D22        0.66968
B23        1.08732
A23      119.50805
D23      355.58734
B24        1.08688
A24      120.15972
D24      180.02118
B25        1.08671
A25      120.03737
D25      180.25672

