%NProcShared=4
%Mem=2GB
%Chk=azo.chk
#n CIS(D)/6-31G(d) SP Geom=AllCheckpoint

 Azo

0 1
C  
C   1 B1
C   2 B2 1 A2
H   2 B3 1 A3 3 D3
C   1 B4 2 A4 3 D4
H   1 B5 2 A5 3 D5
C   3 B6 2 A6 1 D6
C   5 B7 1 A7 2 D7
H   5 B8 1 A8 2 D8
H   7 B9 3 A9 2 D9
H   8 B10 5 A10 1 D10
N   3 B11 2 A11 1 D11
N   12 B12 3 A12 2 D12
C   13 B13 12 A13 3 D13
C   14 B14 13 A14 12 D14
C   15 B15 14 A15 13 D15
H   15 B16 14 A16 13 D16
C   14 B17 13 A17 12 D17
C   18 B18 14 A18 13 D18
H   18 B19 14 A19 13 D19
C   19 B20 18 A20 14 D20
H   16 B21 15 A21 14 D21
H   21 B22 19 A22 18 D22
H   19 B23 18 A23 14 D23
Variables:
B1        1.39772
B2        1.40166
A2      121.27830
B3        1.08747
A3      119.37349
D3      180.00000
B4        1.39227
A4      119.90630
D4      360.00000
B5        1.08682
A5      119.95260
D5      180.00000
B6        1.40418
A6      117.94142
D6        0.00000
B7        1.39276
A7      119.81283
D7        0.00000
B8        1.08701
A8      120.10093
D8      180.00000
B9        1.08675
A9      120.33592
D9      180.00000
B10        1.08696
A10      120.07768
D10      180.00000
B11        1.41282
A11      117.11963
D11      180.00000
B12        1.24668
A12      113.77709
D12      180.00000
B13        1.41317
A13      113.65550
D13      180.00000
B14        1.40436
A14      124.89047
D14        0.00000
B15        1.39865
A15      121.02202
D15      180.00000
B16        1.08677
A16      120.33217
D16      360.00000
B17        1.40161
A17      117.18239
D17      180.00000
B18        1.39786
A18      121.26783
D18      180.00000
B19        1.08746
A19      119.36108
D19        0.00000
B20        1.39234
A20      119.91973
D20        0.00000
B21        1.08695
A21      119.85324
D21      180.00000
B22        1.08701
A22      120.11121
D22      180.00000
B23        1.08683
A23      119.95622
D23      180.00000

